benchmark/results/graph__10-1000-0.10-04_8/graph__10-1000-0.10-04_8_Quinton_Benders_master.lp
\ This file has been generated by DOcplex
\ ENCODING=ISO-8859-1
\Problem name: Quinton Benders_master

Maximize
 obj: z
Subject To
 c1: m_a0_proc_1 + m_a0_proc_3 = 1
 c2: m_a1_proc_1 + m_a1_proc_3 = 1
 c3: m_a2_proc_1 + m_a2_proc_2 + m_a2_proc_3 = 1
 c4: m_a3_proc_0 + m_a3_proc_2 + m_a3_proc_3 = 1
 c5: m_a4_proc_0 + m_a4_proc_1 + m_a4_proc_2 + m_a4_proc_3 = 1
 c6: m_a5_proc_1 + m_a5_proc_2 + m_a5_proc_3 = 1
 c7: m_a6_proc_0 + m_a6_proc_1 + m_a6_proc_2 = 1
 c8: m_a7_proc_0 + m_a7_proc_2 + m_a7_proc_3 = 1
 c9: m_a8_proc_0 + m_a8_proc_1 + m_a8_proc_2 + m_a8_proc_3 = 1
 c10: m_a9_proc_0 + m_a9_proc_2 + m_a9_proc_3 = 1
 c11: K_a0_a1 + K_a1_a0 = 1
 c12: K_a0_a1 + K_a1_a0 = 1
 c13: K_a0_a2 + K_a2_a0 = 1
 c14: K_a0_a2 + K_a2_a0 = 1
 c15: K_a0_a3 + K_a3_a0 = 1
 c16: K_a0_a3 + K_a3_a0 = 1
 c17: K_a0_a4 + K_a4_a0 = 1
 c18: K_a0_a4 + K_a4_a0 = 1
 c19: K_a0_a5 + K_a5_a0 = 1
 c20: K_a0_a5 + K_a5_a0 = 1
 c21: K_a0_a6 + K_a6_a0 = 1
 c22: K_a0_a6 + K_a6_a0 = 1
 c23: K_a0_a7 + K_a7_a0 = 1
 c24: K_a0_a7 + K_a7_a0 = 1
 c25: K_a0_a8 + K_a8_a0 = 1
 c26: K_a0_a8 + K_a8_a0 = 1
 c27: K_a0_a9 + K_a9_a0 = 1
 c28: K_a0_a9 + K_a9_a0 = 1
 c29: K_a1_a2 + K_a2_a1 = 1
 c30: K_a1_a2 + K_a2_a1 = 1
 c31: K_a1_a3 + K_a3_a1 = 1
 c32: K_a1_a3 + K_a3_a1 = 1
 c33: K_a1_a4 + K_a4_a1 = 1
 c34: K_a1_a4 + K_a4_a1 = 1
 c35: K_a1_a5 + K_a5_a1 = 1
 c36: K_a1_a5 + K_a5_a1 = 1
 c37: K_a1_a6 + K_a6_a1 = 1
 c38: K_a1_a6 + K_a6_a1 = 1
 c39: K_a1_a7 + K_a7_a1 = 1
 c40: K_a1_a7 + K_a7_a1 = 1
 c41: K_a1_a8 + K_a8_a1 = 1
 c42: K_a1_a8 + K_a8_a1 = 1
 c43: K_a1_a9 + K_a9_a1 = 1
 c44: K_a1_a9 + K_a9_a1 = 1
 c45: K_a2_a3 + K_a3_a2 = 1
 c46: K_a2_a3 + K_a3_a2 = 1
 c47: K_a2_a4 + K_a4_a2 = 1
 c48: K_a2_a4 + K_a4_a2 = 1
 c49: K_a2_a5 + K_a5_a2 = 1
 c50: K_a2_a5 + K_a5_a2 = 1
 c51: K_a2_a6 + K_a6_a2 = 1
 c52: K_a2_a6 + K_a6_a2 = 1
 c53: K_a2_a7 + K_a7_a2 = 1
 c54: K_a2_a7 + K_a7_a2 = 1
 c55: K_a2_a8 + K_a8_a2 = 1
 c56: K_a2_a8 + K_a8_a2 = 1
 c57: K_a2_a9 + K_a9_a2 = 1
 c58: K_a2_a9 + K_a9_a2 = 1
 c59: K_a3_a4 + K_a4_a3 = 1
 c60: K_a3_a4 + K_a4_a3 = 1
 c61: K_a3_a5 + K_a5_a3 = 1
 c62: K_a3_a5 + K_a5_a3 = 1
 c63: K_a3_a6 + K_a6_a3 = 1
 c64: K_a3_a6 + K_a6_a3 = 1
 c65: K_a3_a7 + K_a7_a3 = 1
 c66: K_a3_a7 + K_a7_a3 = 1
 c67: K_a3_a8 + K_a8_a3 = 1
 c68: K_a3_a8 + K_a8_a3 = 1
 c69: K_a3_a9 + K_a9_a3 = 1
 c70: K_a3_a9 + K_a9_a3 = 1
 c71: K_a4_a5 + K_a5_a4 = 1
 c72: K_a4_a5 + K_a5_a4 = 1
 c73: K_a4_a6 + K_a6_a4 = 1
 c74: K_a4_a6 + K_a6_a4 = 1
 c75: K_a4_a7 + K_a7_a4 = 1
 c76: K_a4_a7 + K_a7_a4 = 1
 c77: K_a4_a8 + K_a8_a4 = 1
 c78: K_a4_a8 + K_a8_a4 = 1
 c79: K_a4_a9 + K_a9_a4 = 1
 c80: K_a4_a9 + K_a9_a4 = 1
 c81: K_a5_a6 + K_a6_a5 = 1
 c82: K_a5_a6 + K_a6_a5 = 1
 c83: K_a5_a7 + K_a7_a5 = 1
 c84: K_a5_a7 + K_a7_a5 = 1
 c85: K_a5_a8 + K_a8_a5 = 1
 c86: K_a5_a8 + K_a8_a5 = 1
 c87: K_a5_a9 + K_a9_a5 = 1
 c88: K_a5_a9 + K_a9_a5 = 1
 c89: K_a6_a7 + K_a7_a6 = 1
 c90: K_a6_a7 + K_a7_a6 = 1
 c91: K_a6_a8 + K_a8_a6 = 1
 c92: K_a6_a8 + K_a8_a6 = 1
 c93: K_a6_a9 + K_a9_a6 = 1
 c94: K_a6_a9 + K_a9_a6 = 1
 c95: K_a7_a8 + K_a8_a7 = 1
 c96: K_a7_a8 + K_a8_a7 = 1
 c97: K_a7_a9 + K_a9_a7 = 1
 c98: K_a7_a9 + K_a9_a7 = 1
 c99: K_a8_a9 + K_a9_a8 = 1
 c100: K_a8_a9 + K_a9_a8 = 1
 c101: z <= 99999999989999992832
 c102: - 1277 m_a0_proc_1 + w_a4 - w_a0 >= -1276.932431153591
 c103: - 1277 m_a0_proc_1 + w_a1 - w_a0 >= -1276.932431153591
 c104: K_a0_a1 - 1277 m_a0_proc_1 - 1277 m_a1_proc_1 + w_a1 - w_a0 >= 
       -2553.932431153592
 c105: K_a0_a2 - 1277 m_a0_proc_1 - 1277 m_a2_proc_1 + w_a2 - w_a0 >= 
       -2553.932431153592
 c106: K_a0_a4 - 1277 m_a0_proc_1 - 1277 m_a4_proc_1 + w_a4 - w_a0 >= 
       -2553.932431153592
 c107: K_a0_a5 - 1277 m_a0_proc_1 - 1277 m_a5_proc_1 + w_a5 - w_a0 >= 
       -2553.932431153592
 c108: K_a0_a6 - 1277 m_a0_proc_1 - 1277 m_a6_proc_1 + w_a6 - w_a0 >= 
       -2553.932431153592
 c109: K_a0_a8 - 1277 m_a0_proc_1 - 1277 m_a8_proc_1 + w_a8 - w_a0 >= 
       -2553.932431153592
 c110: - 1277 m_a0_proc_3 + w_a4 - w_a0 >= -1276.907731617299
 c111: - 1277 m_a0_proc_3 + w_a1 - w_a0 >= -1276.907731617299
 c112: K_a0_a1 - 1277 m_a0_proc_3 - 1277 m_a1_proc_3 + w_a1 - w_a0 >= 
       -2553.907731617299
 c113: K_a0_a2 - 1277 m_a0_proc_3 - 1277 m_a2_proc_3 + w_a2 - w_a0 >= 
       -2553.907731617299
 c114: K_a0_a3 - 1277 m_a0_proc_3 - 1277 m_a3_proc_3 + w_a3 - w_a0 >= 
       -2553.907731617299
 c115: K_a0_a4 - 1277 m_a0_proc_3 - 1277 m_a4_proc_3 + w_a4 - w_a0 >= 
       -2553.907731617299
 c116: K_a0_a5 - 1277 m_a0_proc_3 - 1277 m_a5_proc_3 + w_a5 - w_a0 >= 
       -2553.907731617299
 c117: K_a0_a7 - 1277 m_a0_proc_3 - 1277 m_a7_proc_3 + w_a7 - w_a0 >= 
       -2553.907731617299
 c118: K_a0_a8 - 1277 m_a0_proc_3 - 1277 m_a8_proc_3 + w_a8 - w_a0 >= 
       -2553.907731617299
 c119: K_a0_a9 - 1277 m_a0_proc_3 - 1277 m_a9_proc_3 + w_a9 - w_a0 >= 
       -2553.907731617299
 c120: - 1277 m_a1_proc_1 + w_a0 - w_a1 >= -1277.899025267342
 c121: - 1277 m_a1_proc_1 + w_a2 - w_a1 >= -1277.899025267342
 c122: - 1277 m_a1_proc_1 + w_a5 - w_a1 >= -1276.899025267342
 c123: K_a1_a0 - 1277 m_a0_proc_1 - 1277 m_a1_proc_1 + w_a0 - w_a1 >= 
       -2553.899025267342
 c124: K_a1_a2 - 1277 m_a1_proc_1 - 1277 m_a2_proc_1 + w_a2 - w_a1 >= 
       -2553.899025267342
 c125: K_a1_a4 - 1277 m_a1_proc_1 - 1277 m_a4_proc_1 + w_a4 - w_a1 >= 
       -2553.899025267342
 c126: K_a1_a5 - 1277 m_a1_proc_1 - 1277 m_a5_proc_1 + w_a5 - w_a1 >= 
       -2553.899025267342
 c127: K_a1_a6 - 1277 m_a1_proc_1 - 1277 m_a6_proc_1 + w_a6 - w_a1 >= 
       -2553.899025267342
 c128: K_a1_a8 - 1277 m_a1_proc_1 - 1277 m_a8_proc_1 + w_a8 - w_a1 >= 
       -2553.899025267342
 c129: - 1277 m_a1_proc_3 + w_a0 - w_a1 >= -1277.910097473266
 c130: - 1277 m_a1_proc_3 + w_a2 - w_a1 >= -1277.910097473266
 c131: - 1277 m_a1_proc_3 + w_a5 - w_a1 >= -1276.910097473266
 c132: K_a1_a0 - 1277 m_a0_proc_3 - 1277 m_a1_proc_3 + w_a0 - w_a1 >= 
       -2553.910097473266
 c133: K_a1_a2 - 1277 m_a1_proc_3 - 1277 m_a2_proc_3 + w_a2 - w_a1 >= 
       -2553.910097473266
 c134: K_a1_a3 - 1277 m_a1_proc_3 - 1277 m_a3_proc_3 + w_a3 - w_a1 >= 
       -2553.910097473266
 c135: K_a1_a4 - 1277 m_a1_proc_3 - 1277 m_a4_proc_3 + w_a4 - w_a1 >= 
       -2553.910097473266
 c136: K_a1_a5 - 1277 m_a1_proc_3 - 1277 m_a5_proc_3 + w_a5 - w_a1 >= 
       -2553.910097473266
 c137: K_a1_a7 - 1277 m_a1_proc_3 - 1277 m_a7_proc_3 + w_a7 - w_a1 >= 
       -2553.910097473266
 c138: K_a1_a8 - 1277 m_a1_proc_3 - 1277 m_a8_proc_3 + w_a8 - w_a1 >= 
       -2553.910097473266
 c139: K_a1_a9 - 1277 m_a1_proc_3 - 1277 m_a9_proc_3 + w_a9 - w_a1 >= 
       -2553.910097473266
 c140: - 1277 m_a2_proc_1 + w_a6 - w_a2 >= -1276.880476956563
 c141: - 1277 m_a2_proc_1 + w_a4 - w_a2 >= -1276.880476956563
 c142: K_a2_a0 - 1277 m_a0_proc_1 - 1277 m_a2_proc_1 + w_a0 - w_a2 >= 
       -2553.880476956563
 c143: K_a2_a1 - 1277 m_a1_proc_1 - 1277 m_a2_proc_1 + w_a1 - w_a2 >= 
       -2553.880476956563
 c144: K_a2_a4 - 1277 m_a2_proc_1 - 1277 m_a4_proc_1 + w_a4 - w_a2 >= 
       -2553.880476956563
 c145: K_a2_a5 - 1277 m_a2_proc_1 - 1277 m_a5_proc_1 + w_a5 - w_a2 >= 
       -2553.880476956563
 c146: K_a2_a6 - 1277 m_a2_proc_1 - 1277 m_a6_proc_1 + w_a6 - w_a2 >= 
       -2553.880476956563
 c147: K_a2_a8 - 1277 m_a2_proc_1 - 1277 m_a8_proc_1 + w_a8 - w_a2 >= 
       -2553.880476956563
 c148: - 1277 m_a2_proc_2 + w_a6 - w_a2 >= -1276.892495504874
 c149: - 1277 m_a2_proc_2 + w_a4 - w_a2 >= -1276.892495504874
 c150: K_a2_a3 - 1277 m_a2_proc_2 - 1277 m_a3_proc_2 + w_a3 - w_a2 >= 
       -2553.892495504874
 c151: K_a2_a4 - 1277 m_a2_proc_2 - 1277 m_a4_proc_2 + w_a4 - w_a2 >= 
       -2553.892495504874
 c152: K_a2_a5 - 1277 m_a2_proc_2 - 1277 m_a5_proc_2 + w_a5 - w_a2 >= 
       -2553.892495504874
 c153: K_a2_a6 - 1277 m_a2_proc_2 - 1277 m_a6_proc_2 + w_a6 - w_a2 >= 
       -2553.892495504874
 c154: K_a2_a7 - 1277 m_a2_proc_2 - 1277 m_a7_proc_2 + w_a7 - w_a2 >= 
       -2553.892495504874
 c155: K_a2_a8 - 1277 m_a2_proc_2 - 1277 m_a8_proc_2 + w_a8 - w_a2 >= 
       -2553.892495504874
 c156: K_a2_a9 - 1277 m_a2_proc_2 - 1277 m_a9_proc_2 + w_a9 - w_a2 >= 
       -2553.892495504874
 c157: - 1277 m_a2_proc_3 + w_a6 - w_a2 >= -1276.879152077222
 c158: - 1277 m_a2_proc_3 + w_a4 - w_a2 >= -1276.879152077222
 c159: K_a2_a0 - 1277 m_a0_proc_3 - 1277 m_a2_proc_3 + w_a0 - w_a2 >= 
       -2553.879152077222
 c160: K_a2_a1 - 1277 m_a1_proc_3 - 1277 m_a2_proc_3 + w_a1 - w_a2 >= 
       -2553.879152077222
 c161: K_a2_a3 - 1277 m_a2_proc_3 - 1277 m_a3_proc_3 + w_a3 - w_a2 >= 
       -2553.879152077222
 c162: K_a2_a4 - 1277 m_a2_proc_3 - 1277 m_a4_proc_3 + w_a4 - w_a2 >= 
       -2553.879152077222
 c163: K_a2_a5 - 1277 m_a2_proc_3 - 1277 m_a5_proc_3 + w_a5 - w_a2 >= 
       -2553.879152077222
 c164: K_a2_a7 - 1277 m_a2_proc_3 - 1277 m_a7_proc_3 + w_a7 - w_a2 >= 
       -2553.879152077222
 c165: K_a2_a8 - 1277 m_a2_proc_3 - 1277 m_a8_proc_3 + w_a8 - w_a2 >= 
       -2553.879152077222
 c166: K_a2_a9 - 1277 m_a2_proc_3 - 1277 m_a9_proc_3 + w_a9 - w_a2 >= 
       -2553.879152077222
 c167: - 1277 m_a3_proc_0 + w_a2 - w_a3 >= -1276.946626289392
 c168: - 1277 m_a3_proc_0 + w_a6 - w_a3 >= -1276.946626289392
 c169: K_a3_a4 - 1277 m_a3_proc_0 - 1277 m_a4_proc_0 + w_a4 - w_a3 >= 
       -2553.946626289392
 c170: K_a3_a6 - 1277 m_a3_proc_0 - 1277 m_a6_proc_0 + w_a6 - w_a3 >= 
       -2553.946626289392
 c171: K_a3_a7 - 1277 m_a3_proc_0 - 1277 m_a7_proc_0 + w_a7 - w_a3 >= 
       -2553.946626289392
 c172: K_a3_a8 - 1277 m_a3_proc_0 - 1277 m_a8_proc_0 + w_a8 - w_a3 >= 
       -2553.946626289392
 c173: K_a3_a9 - 1277 m_a3_proc_0 - 1277 m_a9_proc_0 + w_a9 - w_a3 >= 
       -2553.946626289392
 c174: - 1277 m_a3_proc_2 + w_a2 - w_a3 >= -1276.911138449891
 c175: - 1277 m_a3_proc_2 + w_a6 - w_a3 >= -1276.911138449891
 c176: K_a3_a2 - 1277 m_a2_proc_2 - 1277 m_a3_proc_2 + w_a2 - w_a3 >= 
       -2553.911138449891
 c177: K_a3_a4 - 1277 m_a3_proc_2 - 1277 m_a4_proc_2 + w_a4 - w_a3 >= 
       -2553.911138449891
 c178: K_a3_a5 - 1277 m_a3_proc_2 - 1277 m_a5_proc_2 + w_a5 - w_a3 >= 
       -2553.911138449891
 c179: K_a3_a6 - 1277 m_a3_proc_2 - 1277 m_a6_proc_2 + w_a6 - w_a3 >= 
       -2553.911138449891
 c180: K_a3_a7 - 1277 m_a3_proc_2 - 1277 m_a7_proc_2 + w_a7 - w_a3 >= 
       -2553.911138449891
 c181: K_a3_a8 - 1277 m_a3_proc_2 - 1277 m_a8_proc_2 + w_a8 - w_a3 >= 
       -2553.911138449891
 c182: K_a3_a9 - 1277 m_a3_proc_2 - 1277 m_a9_proc_2 + w_a9 - w_a3 >= 
       -2553.911138449891
 c183: - 1277 m_a3_proc_3 + w_a2 - w_a3 >= -1276.940096526924
 c184: - 1277 m_a3_proc_3 + w_a6 - w_a3 >= -1276.940096526924
 c185: K_a3_a0 - 1277 m_a0_proc_3 - 1277 m_a3_proc_3 + w_a0 - w_a3 >= 
       -2553.940096526923
 c186: K_a3_a1 - 1277 m_a1_proc_3 - 1277 m_a3_proc_3 + w_a1 - w_a3 >= 
       -2553.940096526923
 c187: K_a3_a2 - 1277 m_a2_proc_3 - 1277 m_a3_proc_3 + w_a2 - w_a3 >= 
       -2553.940096526923
 c188: K_a3_a4 - 1277 m_a3_proc_3 - 1277 m_a4_proc_3 + w_a4 - w_a3 >= 
       -2553.940096526923
 c189: K_a3_a5 - 1277 m_a3_proc_3 - 1277 m_a5_proc_3 + w_a5 - w_a3 >= 
       -2553.940096526923
 c190: K_a3_a7 - 1277 m_a3_proc_3 - 1277 m_a7_proc_3 + w_a7 - w_a3 >= 
       -2553.940096526923
 c191: K_a3_a8 - 1277 m_a3_proc_3 - 1277 m_a8_proc_3 + w_a8 - w_a3 >= 
       -2553.940096526923
 c192: K_a3_a9 - 1277 m_a3_proc_3 - 1277 m_a9_proc_3 + w_a9 - w_a3 >= 
       -2553.940096526923
 c193: - 1277 m_a4_proc_0 + w_a7 - w_a4 >= -1276.916154064540
 c194: - 1277 m_a4_proc_0 + w_a8 - w_a4 >= -1276.916154064540
 c195: K_a4_a3 - 1277 m_a3_proc_0 - 1277 m_a4_proc_0 + w_a3 - w_a4 >= 
       -2553.916154064540
 c196: K_a4_a6 - 1277 m_a4_proc_0 - 1277 m_a6_proc_0 + w_a6 - w_a4 >= 
       -2553.916154064540
 c197: K_a4_a7 - 1277 m_a4_proc_0 - 1277 m_a7_proc_0 + w_a7 - w_a4 >= 
       -2553.916154064540
 c198: K_a4_a8 - 1277 m_a4_proc_0 - 1277 m_a8_proc_0 + w_a8 - w_a4 >= 
       -2553.916154064540
 c199: K_a4_a9 - 1277 m_a4_proc_0 - 1277 m_a9_proc_0 + w_a9 - w_a4 >= 
       -2553.916154064540
 c200: - 1277 m_a4_proc_1 + w_a7 - w_a4 >= -1276.955900444781
 c201: - 1277 m_a4_proc_1 + w_a8 - w_a4 >= -1276.955900444781
 c202: K_a4_a0 - 1277 m_a0_proc_1 - 1277 m_a4_proc_1 + w_a0 - w_a4 >= 
       -2553.955900444781
 c203: K_a4_a1 - 1277 m_a1_proc_1 - 1277 m_a4_proc_1 + w_a1 - w_a4 >= 
       -2553.955900444781
 c204: K_a4_a2 - 1277 m_a2_proc_1 - 1277 m_a4_proc_1 + w_a2 - w_a4 >= 
       -2553.955900444781
 c205: K_a4_a5 - 1277 m_a4_proc_1 - 1277 m_a5_proc_1 + w_a5 - w_a4 >= 
       -2553.955900444781
 c206: K_a4_a6 - 1277 m_a4_proc_1 - 1277 m_a6_proc_1 + w_a6 - w_a4 >= 
       -2553.955900444781
 c207: K_a4_a8 - 1277 m_a4_proc_1 - 1277 m_a8_proc_1 + w_a8 - w_a4 >= 
       -2553.955900444781
 c208: - 1277 m_a4_proc_2 + w_a7 - w_a4 >= -1276.947951168733
 c209: - 1277 m_a4_proc_2 + w_a8 - w_a4 >= -1276.947951168733
 c210: K_a4_a2 - 1277 m_a2_proc_2 - 1277 m_a4_proc_2 + w_a2 - w_a4 >= 
       -2553.947951168733
 c211: K_a4_a3 - 1277 m_a3_proc_2 - 1277 m_a4_proc_2 + w_a3 - w_a4 >= 
       -2553.947951168733
 c212: K_a4_a5 - 1277 m_a4_proc_2 - 1277 m_a5_proc_2 + w_a5 - w_a4 >= 
       -2553.947951168733
 c213: K_a4_a6 - 1277 m_a4_proc_2 - 1277 m_a6_proc_2 + w_a6 - w_a4 >= 
       -2553.947951168733
 c214: K_a4_a7 - 1277 m_a4_proc_2 - 1277 m_a7_proc_2 + w_a7 - w_a4 >= 
       -2553.947951168733
 c215: K_a4_a8 - 1277 m_a4_proc_2 - 1277 m_a8_proc_2 + w_a8 - w_a4 >= 
       -2553.947951168733
 c216: K_a4_a9 - 1277 m_a4_proc_2 - 1277 m_a9_proc_2 + w_a9 - w_a4 >= 
       -2553.947951168733
 c217: - 1277 m_a4_proc_3 + w_a7 - w_a4 >= -1276.900823317876
 c218: - 1277 m_a4_proc_3 + w_a8 - w_a4 >= -1276.900823317876
 c219: K_a4_a0 - 1277 m_a0_proc_3 - 1277 m_a4_proc_3 + w_a0 - w_a4 >= 
       -2553.900823317877
 c220: K_a4_a1 - 1277 m_a1_proc_3 - 1277 m_a4_proc_3 + w_a1 - w_a4 >= 
       -2553.900823317877
 c221: K_a4_a2 - 1277 m_a2_proc_3 - 1277 m_a4_proc_3 + w_a2 - w_a4 >= 
       -2553.900823317877
 c222: K_a4_a3 - 1277 m_a3_proc_3 - 1277 m_a4_proc_3 + w_a3 - w_a4 >= 
       -2553.900823317877
 c223: K_a4_a5 - 1277 m_a4_proc_3 - 1277 m_a5_proc_3 + w_a5 - w_a4 >= 
       -2553.900823317877
 c224: K_a4_a7 - 1277 m_a4_proc_3 - 1277 m_a7_proc_3 + w_a7 - w_a4 >= 
       -2553.900823317877
 c225: K_a4_a8 - 1277 m_a4_proc_3 - 1277 m_a8_proc_3 + w_a8 - w_a4 >= 
       -2553.900823317877
 c226: K_a4_a9 - 1277 m_a4_proc_3 - 1277 m_a9_proc_3 + w_a9 - w_a4 >= 
       -2553.900823317877
 c227: - 1277 m_a5_proc_1 + w_a3 - w_a5 >= -1277.893820384215
 c228: K_a5_a0 - 1277 m_a0_proc_1 - 1277 m_a5_proc_1 + w_a0 - w_a5 >= 
       -2553.893820384215
 c229: K_a5_a1 - 1277 m_a1_proc_1 - 1277 m_a5_proc_1 + w_a1 - w_a5 >= 
       -2553.893820384215
 c230: K_a5_a2 - 1277 m_a2_proc_1 - 1277 m_a5_proc_1 + w_a2 - w_a5 >= 
       -2553.893820384215
 c231: K_a5_a4 - 1277 m_a4_proc_1 - 1277 m_a5_proc_1 + w_a4 - w_a5 >= 
       -2553.893820384215
 c232: K_a5_a6 - 1277 m_a5_proc_1 - 1277 m_a6_proc_1 + w_a6 - w_a5 >= 
       -2553.893820384215
 c233: K_a5_a8 - 1277 m_a5_proc_1 - 1277 m_a8_proc_1 + w_a8 - w_a5 >= 
       -2553.893820384215
 c234: - 1277 m_a5_proc_2 + w_a3 - w_a5 >= -1277.945963849721
 c235: K_a5_a2 - 1277 m_a2_proc_2 - 1277 m_a5_proc_2 + w_a2 - w_a5 >= 
       -2553.945963849721
 c236: K_a5_a3 - 1277 m_a3_proc_2 - 1277 m_a5_proc_2 + w_a3 - w_a5 >= 
       -2553.945963849721
 c237: K_a5_a4 - 1277 m_a4_proc_2 - 1277 m_a5_proc_2 + w_a4 - w_a5 >= 
       -2553.945963849721
 c238: K_a5_a6 - 1277 m_a5_proc_2 - 1277 m_a6_proc_2 + w_a6 - w_a5 >= 
       -2553.945963849721
 c239: K_a5_a7 - 1277 m_a5_proc_2 - 1277 m_a7_proc_2 + w_a7 - w_a5 >= 
       -2553.945963849721
 c240: K_a5_a8 - 1277 m_a5_proc_2 - 1277 m_a8_proc_2 + w_a8 - w_a5 >= 
       -2553.945963849721
 c241: K_a5_a9 - 1277 m_a5_proc_2 - 1277 m_a9_proc_2 + w_a9 - w_a5 >= 
       -2553.945963849721
 c242: - 1277 m_a5_proc_3 + w_a3 - w_a5 >= -1277.916721869973
 c243: K_a5_a0 - 1277 m_a0_proc_3 - 1277 m_a5_proc_3 + w_a0 - w_a5 >= 
       -2553.916721869973
 c244: K_a5_a1 - 1277 m_a1_proc_3 - 1277 m_a5_proc_3 + w_a1 - w_a5 >= 
       -2553.916721869973
 c245: K_a5_a2 - 1277 m_a2_proc_3 - 1277 m_a5_proc_3 + w_a2 - w_a5 >= 
       -2553.916721869973
 c246: K_a5_a3 - 1277 m_a3_proc_3 - 1277 m_a5_proc_3 + w_a3 - w_a5 >= 
       -2553.916721869973
 c247: K_a5_a4 - 1277 m_a4_proc_3 - 1277 m_a5_proc_3 + w_a4 - w_a5 >= 
       -2553.916721869973
 c248: K_a5_a7 - 1277 m_a5_proc_3 - 1277 m_a7_proc_3 + w_a7 - w_a5 >= 
       -2553.916721869973
 c249: K_a5_a8 - 1277 m_a5_proc_3 - 1277 m_a8_proc_3 + w_a8 - w_a5 >= 
       -2553.916721869973
 c250: K_a5_a9 - 1277 m_a5_proc_3 - 1277 m_a9_proc_3 + w_a9 - w_a5 >= 
       -2553.916721869973
 c251: - 1277 m_a6_proc_0 + w_a5 - w_a6 >= -1276.944638970379
 c252: K_a6_a3 - 1277 m_a3_proc_0 - 1277 m_a6_proc_0 + w_a3 - w_a6 >= 
       -2553.944638970379
 c253: K_a6_a4 - 1277 m_a4_proc_0 - 1277 m_a6_proc_0 + w_a4 - w_a6 >= 
       -2553.944638970379
 c254: K_a6_a7 - 1277 m_a6_proc_0 - 1277 m_a7_proc_0 + w_a7 - w_a6 >= 
       -2553.944638970379
 c255: K_a6_a8 - 1277 m_a6_proc_0 - 1277 m_a8_proc_0 + w_a8 - w_a6 >= 
       -2553.944638970379
 c256: K_a6_a9 - 1277 m_a6_proc_0 - 1277 m_a9_proc_0 + w_a9 - w_a6 >= 
       -2553.944638970379
 c257: - 1277 m_a6_proc_1 + w_a5 - w_a6 >= -1276.929876029147
 c258: K_a6_a0 - 1277 m_a0_proc_1 - 1277 m_a6_proc_1 + w_a0 - w_a6 >= 
       -2553.929876029147
 c259: K_a6_a1 - 1277 m_a1_proc_1 - 1277 m_a6_proc_1 + w_a1 - w_a6 >= 
       -2553.929876029147
 c260: K_a6_a2 - 1277 m_a2_proc_1 - 1277 m_a6_proc_1 + w_a2 - w_a6 >= 
       -2553.929876029147
 c261: K_a6_a4 - 1277 m_a4_proc_1 - 1277 m_a6_proc_1 + w_a4 - w_a6 >= 
       -2553.929876029147
 c262: K_a6_a5 - 1277 m_a5_proc_1 - 1277 m_a6_proc_1 + w_a5 - w_a6 >= 
       -2553.929876029147
 c263: K_a6_a8 - 1277 m_a6_proc_1 - 1277 m_a8_proc_1 + w_a8 - w_a6 >= 
       -2553.929876029147
 c264: - 1277 m_a6_proc_2 + w_a5 - w_a6 >= -1276.928172612851
 c265: K_a6_a2 - 1277 m_a2_proc_2 - 1277 m_a6_proc_2 + w_a2 - w_a6 >= 
       -2553.928172612852
 c266: K_a6_a3 - 1277 m_a3_proc_2 - 1277 m_a6_proc_2 + w_a3 - w_a6 >= 
       -2553.928172612852
 c267: K_a6_a4 - 1277 m_a4_proc_2 - 1277 m_a6_proc_2 + w_a4 - w_a6 >= 
       -2553.928172612852
 c268: K_a6_a5 - 1277 m_a5_proc_2 - 1277 m_a6_proc_2 + w_a5 - w_a6 >= 
       -2553.928172612852
 c269: K_a6_a7 - 1277 m_a6_proc_2 - 1277 m_a7_proc_2 + w_a7 - w_a6 >= 
       -2553.928172612852
 c270: K_a6_a8 - 1277 m_a6_proc_2 - 1277 m_a8_proc_2 + w_a8 - w_a6 >= 
       -2553.928172612852
 c271: K_a6_a9 - 1277 m_a6_proc_2 - 1277 m_a9_proc_2 + w_a9 - w_a6 >= 
       -2553.928172612852
 c272: - 1277 m_a7_proc_0 + w_a9 - w_a7 >= -1276.896091605943
 c273: K_a7_a3 - 1277 m_a3_proc_0 - 1277 m_a7_proc_0 + w_a3 - w_a7 >= 
       -2553.896091605943
 c274: K_a7_a4 - 1277 m_a4_proc_0 - 1277 m_a7_proc_0 + w_a4 - w_a7 >= 
       -2553.896091605943
 c275: K_a7_a6 - 1277 m_a6_proc_0 - 1277 m_a7_proc_0 + w_a6 - w_a7 >= 
       -2553.896091605943
 c276: K_a7_a8 - 1277 m_a7_proc_0 - 1277 m_a8_proc_0 + w_a8 - w_a7 >= 
       -2553.896091605943
 c277: K_a7_a9 - 1277 m_a7_proc_0 - 1277 m_a9_proc_0 + w_a9 - w_a7 >= 
       -2553.896091605943
 c278: - 1277 m_a7_proc_2 + w_a9 - w_a7 >= -1276.886628182076
 c279: K_a7_a2 - 1277 m_a2_proc_2 - 1277 m_a7_proc_2 + w_a2 - w_a7 >= 
       -2553.886628182076
 c280: K_a7_a3 - 1277 m_a3_proc_2 - 1277 m_a7_proc_2 + w_a3 - w_a7 >= 
       -2553.886628182076
 c281: K_a7_a4 - 1277 m_a4_proc_2 - 1277 m_a7_proc_2 + w_a4 - w_a7 >= 
       -2553.886628182076
 c282: K_a7_a5 - 1277 m_a5_proc_2 - 1277 m_a7_proc_2 + w_a5 - w_a7 >= 
       -2553.886628182076
 c283: K_a7_a6 - 1277 m_a6_proc_2 - 1277 m_a7_proc_2 + w_a6 - w_a7 >= 
       -2553.886628182076
 c284: K_a7_a8 - 1277 m_a7_proc_2 - 1277 m_a8_proc_2 + w_a8 - w_a7 >= 
       -2553.886628182076
 c285: K_a7_a9 - 1277 m_a7_proc_2 - 1277 m_a9_proc_2 + w_a9 - w_a7 >= 
       -2553.886628182076
 c286: - 1277 m_a7_proc_3 + w_a9 - w_a7 >= -1276.904135516230
 c287: K_a7_a0 - 1277 m_a0_proc_3 - 1277 m_a7_proc_3 + w_a0 - w_a7 >= 
       -2553.904135516230
 c288: K_a7_a1 - 1277 m_a1_proc_3 - 1277 m_a7_proc_3 + w_a1 - w_a7 >= 
       -2553.904135516230
 c289: K_a7_a2 - 1277 m_a2_proc_3 - 1277 m_a7_proc_3 + w_a2 - w_a7 >= 
       -2553.904135516230
 c290: K_a7_a3 - 1277 m_a3_proc_3 - 1277 m_a7_proc_3 + w_a3 - w_a7 >= 
       -2553.904135516230
 c291: K_a7_a4 - 1277 m_a4_proc_3 - 1277 m_a7_proc_3 + w_a4 - w_a7 >= 
       -2553.904135516230
 c292: K_a7_a5 - 1277 m_a5_proc_3 - 1277 m_a7_proc_3 + w_a5 - w_a7 >= 
       -2553.904135516230
 c293: K_a7_a8 - 1277 m_a7_proc_3 - 1277 m_a8_proc_3 + w_a8 - w_a7 >= 
       -2553.904135516230
 c294: K_a7_a9 - 1277 m_a7_proc_3 - 1277 m_a9_proc_3 + w_a9 - w_a7 >= 
       -2553.904135516230
 c295: - 1277 m_a8_proc_0 + w_a7 - w_a8 >= -1276.924292609066
 c296: K_a8_a3 - 1277 m_a3_proc_0 - 1277 m_a8_proc_0 + w_a3 - w_a8 >= 
       -2553.924292609066
 c297: K_a8_a4 - 1277 m_a4_proc_0 - 1277 m_a8_proc_0 + w_a4 - w_a8 >= 
       -2553.924292609066
 c298: K_a8_a6 - 1277 m_a6_proc_0 - 1277 m_a8_proc_0 + w_a6 - w_a8 >= 
       -2553.924292609066
 c299: K_a8_a7 - 1277 m_a7_proc_0 - 1277 m_a8_proc_0 + w_a7 - w_a8 >= 
       -2553.924292609066
 c300: K_a8_a9 - 1277 m_a8_proc_0 - 1277 m_a9_proc_0 + w_a9 - w_a8 >= 
       -2553.924292609066
 c301: - 1277 m_a8_proc_1 + w_a7 - w_a8 >= -1276.895807703227
 c302: K_a8_a0 - 1277 m_a0_proc_1 - 1277 m_a8_proc_1 + w_a0 - w_a8 >= 
       -2553.895807703227
 c303: K_a8_a1 - 1277 m_a1_proc_1 - 1277 m_a8_proc_1 + w_a1 - w_a8 >= 
       -2553.895807703227
 c304: K_a8_a2 - 1277 m_a2_proc_1 - 1277 m_a8_proc_1 + w_a2 - w_a8 >= 
       -2553.895807703227
 c305: K_a8_a4 - 1277 m_a4_proc_1 - 1277 m_a8_proc_1 + w_a4 - w_a8 >= 
       -2553.895807703227
 c306: K_a8_a5 - 1277 m_a5_proc_1 - 1277 m_a8_proc_1 + w_a5 - w_a8 >= 
       -2553.895807703227
 c307: K_a8_a6 - 1277 m_a6_proc_1 - 1277 m_a8_proc_1 + w_a6 - w_a8 >= 
       -2553.895807703227
 c308: - 1277 m_a8_proc_2 + w_a7 - w_a8 >= -1276.910476010220
 c309: K_a8_a2 - 1277 m_a2_proc_2 - 1277 m_a8_proc_2 + w_a2 - w_a8 >= 
       -2553.910476010220
 c310: K_a8_a3 - 1277 m_a3_proc_2 - 1277 m_a8_proc_2 + w_a3 - w_a8 >= 
       -2553.910476010220
 c311: K_a8_a4 - 1277 m_a4_proc_2 - 1277 m_a8_proc_2 + w_a4 - w_a8 >= 
       -2553.910476010220
 c312: K_a8_a5 - 1277 m_a5_proc_2 - 1277 m_a8_proc_2 + w_a5 - w_a8 >= 
       -2553.910476010220
 c313: K_a8_a6 - 1277 m_a6_proc_2 - 1277 m_a8_proc_2 + w_a6 - w_a8 >= 
       -2553.910476010220
 c314: K_a8_a7 - 1277 m_a7_proc_2 - 1277 m_a8_proc_2 + w_a7 - w_a8 >= 
       -2553.910476010220
 c315: K_a8_a9 - 1277 m_a8_proc_2 - 1277 m_a9_proc_2 + w_a9 - w_a8 >= 
       -2553.910476010220
 c316: - 1277 m_a8_proc_3 + w_a7 - w_a8 >= -1276.919182360178
 c317: K_a8_a0 - 1277 m_a0_proc_3 - 1277 m_a8_proc_3 + w_a0 - w_a8 >= 
       -2553.919182360178
 c318: K_a8_a1 - 1277 m_a1_proc_3 - 1277 m_a8_proc_3 + w_a1 - w_a8 >= 
       -2553.919182360178
 c319: K_a8_a2 - 1277 m_a2_proc_3 - 1277 m_a8_proc_3 + w_a2 - w_a8 >= 
       -2553.919182360178
 c320: K_a8_a3 - 1277 m_a3_proc_3 - 1277 m_a8_proc_3 + w_a3 - w_a8 >= 
       -2553.919182360178
 c321: K_a8_a4 - 1277 m_a4_proc_3 - 1277 m_a8_proc_3 + w_a4 - w_a8 >= 
       -2553.919182360178
 c322: K_a8_a5 - 1277 m_a5_proc_3 - 1277 m_a8_proc_3 + w_a5 - w_a8 >= 
       -2553.919182360178
 c323: K_a8_a7 - 1277 m_a7_proc_3 - 1277 m_a8_proc_3 + w_a7 - w_a8 >= 
       -2553.919182360178
 c324: K_a8_a9 - 1277 m_a8_proc_3 - 1277 m_a9_proc_3 + w_a9 - w_a8 >= 
       -2553.919182360178
 c325: - 1277 m_a9_proc_0 + w_a1 - w_a9 >= -1276.897700388000
 c326: K_a9_a3 - 1277 m_a3_proc_0 - 1277 m_a9_proc_0 + w_a3 - w_a9 >= 
       -2553.897700388000
 c327: K_a9_a4 - 1277 m_a4_proc_0 - 1277 m_a9_proc_0 + w_a4 - w_a9 >= 
       -2553.897700388000
 c328: K_a9_a6 - 1277 m_a6_proc_0 - 1277 m_a9_proc_0 + w_a6 - w_a9 >= 
       -2553.897700388000
 c329: K_a9_a7 - 1277 m_a7_proc_0 - 1277 m_a9_proc_0 + w_a7 - w_a9 >= 
       -2553.897700388000
 c330: K_a9_a8 - 1277 m_a8_proc_0 - 1277 m_a9_proc_0 + w_a8 - w_a9 >= 
       -2553.897700388000
 c331: - 1277 m_a9_proc_2 + w_a1 - w_a9 >= -1276.961105327908
 c332: K_a9_a2 - 1277 m_a2_proc_2 - 1277 m_a9_proc_2 + w_a2 - w_a9 >= 
       -2553.961105327908
 c333: K_a9_a3 - 1277 m_a3_proc_2 - 1277 m_a9_proc_2 + w_a3 - w_a9 >= 
       -2553.961105327908
 c334: K_a9_a4 - 1277 m_a4_proc_2 - 1277 m_a9_proc_2 + w_a4 - w_a9 >= 
       -2553.961105327908
 c335: K_a9_a5 - 1277 m_a5_proc_2 - 1277 m_a9_proc_2 + w_a5 - w_a9 >= 
       -2553.961105327908
 c336: K_a9_a6 - 1277 m_a6_proc_2 - 1277 m_a9_proc_2 + w_a6 - w_a9 >= 
       -2553.961105327908
 c337: K_a9_a7 - 1277 m_a7_proc_2 - 1277 m_a9_proc_2 + w_a7 - w_a9 >= 
       -2553.961105327908
 c338: K_a9_a8 - 1277 m_a8_proc_2 - 1277 m_a9_proc_2 + w_a8 - w_a9 >= 
       -2553.961105327908
 c339: - 1277 m_a9_proc_3 + w_a1 - w_a9 >= -1276.920128702565
 c340: K_a9_a0 - 1277 m_a0_proc_3 - 1277 m_a9_proc_3 + w_a0 - w_a9 >= 
       -2553.920128702564
 c341: K_a9_a1 - 1277 m_a1_proc_3 - 1277 m_a9_proc_3 + w_a1 - w_a9 >= 
       -2553.920128702564
 c342: K_a9_a2 - 1277 m_a2_proc_3 - 1277 m_a9_proc_3 + w_a2 - w_a9 >= 
       -2553.920128702564
 c343: K_a9_a3 - 1277 m_a3_proc_3 - 1277 m_a9_proc_3 + w_a3 - w_a9 >= 
       -2553.920128702564
 c344: K_a9_a4 - 1277 m_a4_proc_3 - 1277 m_a9_proc_3 + w_a4 - w_a9 >= 
       -2553.920128702564
 c345: K_a9_a5 - 1277 m_a5_proc_3 - 1277 m_a9_proc_3 + w_a5 - w_a9 >= 
       -2553.920128702564
 c346: K_a9_a7 - 1277 m_a7_proc_3 - 1277 m_a9_proc_3 + w_a7 - w_a9 >= 
       -2553.920128702564
 c347: K_a9_a8 - 1277 m_a8_proc_3 - 1277 m_a9_proc_3 + w_a8 - w_a9 >= 
       -2553.920128702564
 c348: z - 0.053418803419 m_a3_proc_0 - 0.043589743590 m_a3_proc_3
       - 0.042877492877 m_a8_proc_0 - 0.022079772080 m_a8_proc_2
       - 0.035185185185 m_a8_proc_3 - 0.061680911681 m_a9_proc_2 <= 
       0.000142450142
 c349: z - 0.002172226532 m_a2_proc_1 - 0.021877424360 m_a2_proc_2
       - 0.013033359193 m_a4_proc_1 - 0.047944142746 m_a5_proc_2 <= 
       0.000155159038
 c350: z - 0.017773051800 m_a1_proc_3 - 0.010481543369 m_a3_proc_0
       - 0.015190642564 m_a7_proc_0 - 0.028102688744 m_a7_proc_3
       - 0.045723834118 m_a8_proc_0 - 0.023545495974 m_a8_proc_2
       - 0.037520887134 m_a8_proc_3 <= 0.000151906426
 c351: z - 0.068253467844 m_a9_proc_2 <= 0.000157629256
 c352: z - 0.014049586777 m_a7_proc_3 - 0.008925619835 m_a8_proc_0 <= 
       0.000165289256
 c353: z - 0.002110340669 m_a2_proc_1 - 0.021254145312 m_a2_proc_2
       - 0.024419656316 m_a4_proc_0 - 0.087729876394 m_a4_proc_1
       - 0.075067832379 m_a4_proc_2 <= 0.000150738619
 c354: z - 0.014011676397 m_a4_proc_1 <= 0.000166805671
 c355: z <= 0.000169176112

Bounds
 -inf <= K_a0_a1 <= 1000000000
 -inf <= K_a0_a2 <= 1000000000
 -inf <= K_a0_a3 <= 1000000000
 -inf <= K_a0_a4 <= 1000000000
 -inf <= K_a0_a5 <= 1000000000
 -inf <= K_a0_a6 <= 1000000000
 -inf <= K_a0_a7 <= 1000000000
 -inf <= K_a0_a8 <= 1000000000
 -inf <= K_a0_a9 <= 1000000000
 -inf <= K_a1_a0 <= 1000000000
 -inf <= K_a1_a2 <= 1000000000
 -inf <= K_a1_a3 <= 1000000000
 -inf <= K_a1_a4 <= 1000000000
 -inf <= K_a1_a5 <= 1000000000
 -inf <= K_a1_a6 <= 1000000000
 -inf <= K_a1_a7 <= 1000000000
 -inf <= K_a1_a8 <= 1000000000
 -inf <= K_a1_a9 <= 1000000000
 -inf <= K_a2_a0 <= 1000000000
 -inf <= K_a2_a1 <= 1000000000
 -inf <= K_a2_a3 <= 1000000000
 -inf <= K_a2_a4 <= 1000000000
 -inf <= K_a2_a5 <= 1000000000
 -inf <= K_a2_a6 <= 1000000000
 -inf <= K_a2_a7 <= 1000000000
 -inf <= K_a2_a8 <= 1000000000
 -inf <= K_a2_a9 <= 1000000000
 -inf <= K_a3_a0 <= 1000000000
 -inf <= K_a3_a1 <= 1000000000
 -inf <= K_a3_a2 <= 1000000000
 -inf <= K_a3_a4 <= 1000000000
 -inf <= K_a3_a5 <= 1000000000
 -inf <= K_a3_a6 <= 1000000000
 -inf <= K_a3_a7 <= 1000000000
 -inf <= K_a3_a8 <= 1000000000
 -inf <= K_a3_a9 <= 1000000000
 -inf <= K_a4_a0 <= 1000000000
 -inf <= K_a4_a1 <= 1000000000
 -inf <= K_a4_a2 <= 1000000000
 -inf <= K_a4_a3 <= 1000000000
 -inf <= K_a4_a5 <= 1000000000
 -inf <= K_a4_a6 <= 1000000000
 -inf <= K_a4_a7 <= 1000000000
 -inf <= K_a4_a8 <= 1000000000
 -inf <= K_a4_a9 <= 1000000000
 -inf <= K_a5_a0 <= 1000000000
 -inf <= K_a5_a1 <= 1000000000
 -inf <= K_a5_a2 <= 1000000000
 -inf <= K_a5_a3 <= 1000000000
 -inf <= K_a5_a4 <= 1000000000
 -inf <= K_a5_a6 <= 1000000000
 -inf <= K_a5_a7 <= 1000000000
 -inf <= K_a5_a8 <= 1000000000
 -inf <= K_a5_a9 <= 1000000000
 -inf <= K_a6_a0 <= 1000000000
 -inf <= K_a6_a1 <= 1000000000
 -inf <= K_a6_a2 <= 1000000000
 -inf <= K_a6_a3 <= 1000000000
 -inf <= K_a6_a4 <= 1000000000
 -inf <= K_a6_a5 <= 1000000000
 -inf <= K_a6_a7 <= 1000000000
 -inf <= K_a6_a8 <= 1000000000
 -inf <= K_a6_a9 <= 1000000000
 -inf <= K_a7_a0 <= 1000000000
 -inf <= K_a7_a1 <= 1000000000
 -inf <= K_a7_a2 <= 1000000000
 -inf <= K_a7_a3 <= 1000000000
 -inf <= K_a7_a4 <= 1000000000
 -inf <= K_a7_a5 <= 1000000000
 -inf <= K_a7_a6 <= 1000000000
 -inf <= K_a7_a8 <= 1000000000
 -inf <= K_a7_a9 <= 1000000000
 -inf <= K_a8_a0 <= 1000000000
 -inf <= K_a8_a1 <= 1000000000
 -inf <= K_a8_a2 <= 1000000000
 -inf <= K_a8_a3 <= 1000000000
 -inf <= K_a8_a4 <= 1000000000
 -inf <= K_a8_a5 <= 1000000000
 -inf <= K_a8_a6 <= 1000000000
 -inf <= K_a8_a7 <= 1000000000
 -inf <= K_a8_a9 <= 1000000000
 -inf <= K_a9_a0 <= 1000000000
 -inf <= K_a9_a1 <= 1000000000
 -inf <= K_a9_a2 <= 1000000000
 -inf <= K_a9_a3 <= 1000000000
 -inf <= K_a9_a4 <= 1000000000
 -inf <= K_a9_a5 <= 1000000000
 -inf <= K_a9_a6 <= 1000000000
 -inf <= K_a9_a7 <= 1000000000
 -inf <= K_a9_a8 <= 1000000000
 0 <= m_a0_proc_1 <= 1
 0 <= m_a0_proc_3 <= 1
 0 <= m_a1_proc_1 <= 1
 0 <= m_a1_proc_3 <= 1
 0 <= m_a2_proc_1 <= 1
 0 <= m_a2_proc_2 <= 1
 0 <= m_a2_proc_3 <= 1
 0 <= m_a3_proc_0 <= 1
 0 <= m_a3_proc_2 <= 1
 0 <= m_a3_proc_3 <= 1
 0 <= m_a4_proc_0 <= 1
 0 <= m_a4_proc_1 <= 1
 0 <= m_a4_proc_2 <= 1
 0 <= m_a4_proc_3 <= 1
 0 <= m_a5_proc_1 <= 1
 0 <= m_a5_proc_2 <= 1
 0 <= m_a5_proc_3 <= 1
 0 <= m_a6_proc_0 <= 1
 0 <= m_a6_proc_1 <= 1
 0 <= m_a6_proc_2 <= 1
 0 <= m_a7_proc_0 <= 1
 0 <= m_a7_proc_2 <= 1
 0 <= m_a7_proc_3 <= 1
 0 <= m_a8_proc_0 <= 1
 0 <= m_a8_proc_1 <= 1
 0 <= m_a8_proc_2 <= 1
 0 <= m_a8_proc_3 <= 1
 0 <= m_a9_proc_0 <= 1
 0 <= m_a9_proc_2 <= 1
 0 <= m_a9_proc_3 <= 1

Binaries
 m_a0_proc_1 m_a0_proc_3 m_a1_proc_1 m_a1_proc_3 m_a2_proc_1 m_a2_proc_2
 m_a2_proc_3 m_a3_proc_0 m_a3_proc_2 m_a3_proc_3 m_a4_proc_0 m_a4_proc_1
 m_a4_proc_2 m_a4_proc_3 m_a5_proc_1 m_a5_proc_2 m_a5_proc_3 m_a6_proc_0
 m_a6_proc_1 m_a6_proc_2 m_a7_proc_0 m_a7_proc_2 m_a7_proc_3 m_a8_proc_0
 m_a8_proc_1 m_a8_proc_2 m_a8_proc_3 m_a9_proc_0 m_a9_proc_2 m_a9_proc_3

Generals
 K_a0_a1 K_a0_a2 K_a0_a3 K_a0_a4 K_a0_a5 K_a0_a6 K_a0_a7 K_a0_a8 K_a0_a9 K_a1_a0
 K_a1_a2 K_a1_a3 K_a1_a4 K_a1_a5 K_a1_a6 K_a1_a7 K_a1_a8 K_a1_a9 K_a2_a0 K_a2_a1
 K_a2_a3 K_a2_a4 K_a2_a5 K_a2_a6 K_a2_a7 K_a2_a8 K_a2_a9 K_a3_a0 K_a3_a1 K_a3_a2
 K_a3_a4 K_a3_a5 K_a3_a6 K_a3_a7 K_a3_a8 K_a3_a9 K_a4_a0 K_a4_a1 K_a4_a2 K_a4_a3
 K_a4_a5 K_a4_a6 K_a4_a7 K_a4_a8 K_a4_a9 K_a5_a0 K_a5_a1 K_a5_a2 K_a5_a3 K_a5_a4
 K_a5_a6 K_a5_a7 K_a5_a8 K_a5_a9 K_a6_a0 K_a6_a1 K_a6_a2 K_a6_a3 K_a6_a4 K_a6_a5
 K_a6_a7 K_a6_a8 K_a6_a9 K_a7_a0 K_a7_a1 K_a7_a2 K_a7_a3 K_a7_a4 K_a7_a5 K_a7_a6
 K_a7_a8 K_a7_a9 K_a8_a0 K_a8_a1 K_a8_a2 K_a8_a3 K_a8_a4 K_a8_a5 K_a8_a6 K_a8_a7
 K_a8_a9 K_a9_a0 K_a9_a1 K_a9_a2 K_a9_a3 K_a9_a4 K_a9_a5 K_a9_a6 K_a9_a7 K_a9_a8
End
