benchmark/results/graph__10-1000-0.10-04_8/graph__10-1000-0.10-04_8_Quinton_Benders_master.txt
solution for: Quinton Benders_master
objective: 0.000169176
status: OPTIMAL_SOLUTION(2)
K_a0_a2=1277
K_a0_a3=1278
K_a0_a4=1277
K_a0_a5=1277
K_a0_a6=2554
K_a0_a8=1277
K_a0_a9=1277
K_a1_a0=1
K_a1_a2=1278
K_a1_a3=1278
K_a1_a4=1278
K_a1_a5=1277
K_a1_a6=2554
K_a1_a7=1
K_a1_a8=1278
K_a1_a9=1277
K_a2_a0=-1276
K_a2_a1=-1277
K_a2_a3=1277
K_a2_a7=1277
K_a2_a8=1277
K_a3_a0=-1277
K_a3_a1=-1277
K_a3_a2=-1276
K_a3_a4=1277
K_a3_a5=1277
K_a3_a6=1277
K_a3_a7=1277
K_a3_a9=1277
K_a4_a0=-1276
K_a4_a1=-1277
K_a4_a2=1
K_a4_a3=-1276
K_a4_a7=1277
K_a4_a8=1277
K_a5_a0=-1276
K_a5_a1=-1276
K_a5_a2=1
K_a5_a3=-1276
K_a5_a4=1
K_a5_a6=1
K_a5_a7=1278
K_a5_a8=1278
K_a5_a9=1
K_a6_a0=-2553
K_a6_a1=-2553
K_a6_a2=1
K_a6_a3=-1276
K_a6_a4=1
K_a6_a7=1278
K_a6_a8=1278
K_a6_a9=1
K_a7_a0=1
K_a7_a2=-1276
K_a7_a3=-1276
K_a7_a4=-1276
K_a7_a5=-1277
K_a7_a6=-1277
K_a7_a8=1277
K_a7_a9=1277
K_a8_a0=-1276
K_a8_a1=-1277
K_a8_a2=-1276
K_a8_a3=1
K_a8_a4=-1276
K_a8_a5=-1277
K_a8_a6=-1277
K_a8_a7=-1276
K_a8_a9=1277
K_a9_a0=-1276
K_a9_a1=-1276
K_a9_a2=1
K_a9_a3=-1276
K_a9_a4=1
K_a9_a7=-1276
K_a9_a8=-1276
m_a0_proc_3=1
m_a1_proc_3=1
m_a2_proc_2=1
m_a3_proc_0=1
m_a4_proc_1=1
m_a5_proc_2=1
m_a6_proc_2=1
m_a7_proc_3=1
m_a8_proc_0=1
m_a9_proc_2=1
z=0.000
w_a0=0.060
w_a1=0.856
w_a2=0.053
w_a4=0.161
w_a5=0.946
w_a6=0.874
w_a7=0.721
w_a8=0.205
w_a9=0.817
